objective value:                                   -7
t_x#4                                               1 	(obj:-1)
t_x#8                                               1 	(obj:-1)
t_x#13                                              1 	(obj:-1)
t_x#25                                              1 	(obj:-1)
t_x#27                                              1 	(obj:-1)
t_x#34                                              1 	(obj:-1)
t_x#35                                              1 	(obj:-1)
t_y#25#0#6                                          1 	(obj:0)
t_u#25#6                                            1 	(obj:0)
t_y#27#1#14                                         1 	(obj:0)
t_u#27#1                                            1 	(obj:0)
t_y#27#1#12                                         1 	(obj:0)
t_y#8#18#0                                          1 	(obj:0)
t_u#8#18                                            1 	(obj:0)
t_y#8#18#10                                         1 	(obj:0)
t_y#34#14#7                                         1 	(obj:0)
t_u#34#7                                            1 	(obj:0)
t_y#25#14#6                                         1 	(obj:0)
t_y#35#11#16                                        1 	(obj:0)
t_u#35#11                                           1 	(obj:0)
t_y#35#11#3                                         1 	(obj:0)
t_y#35#12#11                                        1 	(obj:0)
t_y#4#5#19                                          1 	(obj:0)
t_u#4#19                                            1 	(obj:0)
t_y#13#5#2                                          1 	(obj:0)
t_u#13#2                                            1 	(obj:0)
t_y#8#17#18                                         1 	(obj:0)
t_y#25#8#6                                          1 	(obj:0)
t_y#4#9#19                                          1 	(obj:0)
t_y#13#3#2                                          1 	(obj:0)
t_y#4#10#19                                         1 	(obj:0)
t_slack#0#14                                        1 	(obj:0)
t_slack#0#9                                         1 	(obj:0)
t_slack#14#5                                        1 	(obj:0)
t_slack#14#16                                       1 	(obj:0)
t_slack#14#17                                       1 	(obj:0)
t_slack#12#8                                        1 	(obj:0)
t_slack#12#13                                       1 	(obj:0)
t_slack#5#10                                        1 	(obj:0)
t_slack#5#8                                         1 	(obj:0)
t_slack#5#9                                         1 	(obj:0)
t_slack#4#0                                         1 	(obj:0)
t_slack#4#10                                        1 	(obj:0)
t_slack#4#15                                        1 	(obj:0)
t_slack#4#13                                        1 	(obj:0)
t_slack#13#10                                       1 	(obj:0)
t_slack#13#15                                       1 	(obj:0)
t_slack#8#13                                        1 	(obj:0)
t_slack#3#15                                        1 	(obj:0)
t_slack#3#17                                        1 	(obj:0)
t_slack#16#9                                        1 	(obj:0)
